Maximize

52.5 b0 + 36.0 b1 + 7 b2 + 2 b3.v0 + 6 b3.v1 + 83.5 b4 + 13 b5.v0 + 13 b5.v1 + 14 b6 + 58.5 b7.v0 + 58.5 b7.v1 + 58.5 b7.v2 + 120.5 b8 + 34.0 b9 + 48.5 b10.v0 + 48.5 b10.v1 + 52.5 b11.v0 + 52.5 b11.v1 + 41.0 b12 + 84.5 b13 + 36.0 b14.v0 + 35.0 b14.v1 + 36.0 b14.v2 + 18.5 b15 + 40.5 b16 + 6 b17 + 36.0 b18 + 6 b19.v0 + 6 b19.v1 + 13.5 b20 + 19.5 b21.v0 + 19.5 b21.v1 + 6 b22 + 69.5 b23 + 4 b24.v0 + 6 b24.v1 + 34.5 b25 + 8 b26 + 234.0 b27.v0 + 234.0 b27.v1 + 53.5 b28.v0 + 53.5 b28.v1 + 107.0 b29 + 6 b30 + 1 b31.v0 + 1 b31.v1 + 14 b32 + 8 b34 + 1 b35.v0 + 1 b35.v1 + 14 b36 + 52.5 b38 + 6071.5 b39 + 18.5 b40.v0 + 15.5 b40.v1 + 0 b41 + 40.0 b43 + 6059.5 b44 + 48.5 b45.v0 + 49.5 b45.v1 + 6111.0 b46 + 18.5 b47.v0 + 15.5 b47.v1 + 0 b48 + 0 b49 + 23.5 b51 + 6 b52.v0 + 6 b52.v1 + 1 b53 + 7 b54.v0 + 7 b54.v1 + 6 b55 + 12.5 x5_0.m + 12.5 x6_0.m + 12.5 x6_1.m + 12.5 x10_0.m + 12.5 x10_1.m + 12.5 x16_0.m + 12.5 x24_0.m + 12.5 x25_0.m + 12.5 x25_1.m + 12.5 x26_0.m + 12.5 x27_0.m + 12.5 x27_1.m + 12.5 x27_2.m + 12.5 x27_3.m + 12.5 x27_4.m + 12.5 x27_5.m + 12.5 x30_0.m + 12.5 x30_1.m + 12.5 x30_2.m + 12.5 x32_0.m + 12.5 x32_1.m + 12.5 x34_0.m + 12.5 x34_1.m + 12.5 x34_2.m + 12.5 x34_3.m + 12.5 x34_4.m + 12.5 x36_0.m + 12.5 x36_1.m + 12.5 dr5_0.m + 12.5 dr6_0.m + 12.5 dr6_1.m + 12.5 dr10_0.m + 12.5 dr10_1.m + 12.5 dr10_2.m + 12.5 dr10_3.m + 12.5 dr10_4.m + 12.5 dr16_0.m + 12.5 dr16_1.m + 12.5 dr16_2.m + 12.5 dr25_0.m + 12.5 dr25_1.m + 12.5 dr25_2.m + 12.5 dr25_3.m + 12.5 dr26_0.m + 12.5 dr27_0.m + 12.5 dr27_1.m + 12.5 dr27_2.m + 12.5 dr27_3.m + 12.5 dr27_4.m + 12.5 dr27_5.m + 12.5 dr27_6.m + 12.5 dr27_7.m + 12.5 dr27_8.m + 12.5 dr27_9.m + 12.5 dr27_10.m + 12.5 dr27_11.m + 12.5 dr27_12.m + 12.5 dr27_13.m + 12.5 dr30_0.m + 12.5 dr30_1.m + 12.5 dr32_0.m + 12.5 dr32_1.m + 12.5 dr34_0.m + 12.5 dr34_1.m + 12.5 dr36_0.m + 12.5 dr36_1.m


Subject to

\ === tcfg constraints ===
dSta_0 = 1
b0 - dSta_0 = 0
b0 - d0_18 = 0
b1 - d21_1 = 0
b1 - d1_3 - d1_15 = 0
b2 - d54_2 = 0
b2 - d2_4 - d2_3 = 0
b3 - d1_3 - d2_3 = 0
b3 - d3_14 = 0
b4 - d2_4 = 0
b4 - d4_7 - d4_5 = 0
b5 - d4_5 - d6_5 = 0
b5 - d5_6 - d5_16 = 0
b6 - d5_6 = 0
b6 - d6_5 - d6_7 = 0
b7 - d4_7 - d6_7 - d16_7 = 0
b7 - d7_8 - d7_17 = 0
b8 - d7_8 = 0
b8 - d8_23 = 0
b9 - d28_9 = 0
b9 - d9_11 - d9_10 = 0
b10 - d9_10 - d10_10 = 0
b10 - d10_10 - d10_11 = 0
b11 - d9_11 - d10_11 = 0
b11 - d11_38 = 0
b12 - d40_12 = 0
b12 - d12_43 = 0
b13 - d47_13 = 0
b13 - d13_14 = 0
b14 - d3_14 - d13_14 - d17_14 = 0
b15 - d1_15 = 0
b15 - d15_51 = 0
b16 - d5_16 = 0
b16 - d16_7 = 0
b17 - d7_17 = 0
b17 - d17_14 = 0
b18 - d0_18 = 0
b18 - d18_19 - d18_22 = 0
b19 - d18_19 - d22_19 = 0
b19 - d19_21 = 0
b20 - d22_20 = 0
b20 - d20_21 = 0
b21 - d19_21 - d20_21 = 0
b21 - d21_1 = 0
b22 - d18_22 = 0
b22 - d22_20 - d22_19 = 0
b23 - d8_23 = 0
b23 - d23_24 = 0
b24 - d23_24 - d26_24 = 0
b24 - d24_30 = 0
b25 - d32_25 = 0
b25 - d25_34 = 0
b26 - d36_26 = 0
b26 - d26_24 - d26_29 = 0
b27 - d27_27 - d29_27 = 0
b27 - d27_27 - d27_28 = 0
b28 - d27_28 - d29_28 = 0
b28 - d28_9 = 0
b29 - d26_29 = 0
b29 - d29_28 - d29_27 = 0
b30 - d24_30 = 0
b30 - d30_31 = 0
b31 - d30_31 - d31_31 = 0
b31 - d31_31 - d31_32 = 0
b32 - d31_32 = 0
b32 - d32_25 = 0
b34 - d25_34 = 0
b34 - d34_35 = 0
b35 - d34_35 - d35_35 = 0
b35 - d35_35 - d35_36 = 0
b36 - d35_36 = 0
b36 - d36_26 = 0
b38 - d11_38 = 0
b38 - d38_40 - d38_41 = 0
b39 - d41_39 = 0
b39 - d39_40 = 0
b40 - d38_40 - d39_40 = 0
b40 - d40_12 = 0
b41 - d38_41 = 0
b41 - d41_39 = 0
b43 - d12_43 = 0
b43 - d43_45 - d43_48 = 0
b44 - d48_44 = 0
b44 - d44_45 = 0
b45 - d43_45 - d44_45 = 0
b45 - d45_47 - d45_49 = 0
b46 - d49_46 = 0
b46 - d46_47 = 0
b47 - d45_47 - d46_47 = 0
b47 - d47_13 = 0
b48 - d43_48 = 0
b48 - d48_44 = 0
b49 - d45_49 = 0
b49 - d49_46 = 0
b51 - d15_51 = 0
b51 - d51_52 - d51_55 = 0
b52 - d51_52 - d55_52 = 0
b52 - d52_54 = 0
b53 - d55_53 = 0
b53 - d53_54 = 0
b54 - d52_54 - d53_54 = 0
b54 - d54_2 = 0
b55 - d51_55 = 0
b55 - d55_53 - d55_52 = 0


\ === header constraints ===
b24 - 10 d23_24 <= 0
b27 - 5 d29_27 <= 0
b5 - 61 d4_5 <= 0
b10 - 8 d9_10 <= 0
b31 - 31 d30_31 <= 0
b35 - 31 d34_35 <= 0


\ === context constraints ===
b3 - b3.v0 - b3.v1 = 0
b3.v0 - d1_3 = 0
b3.v1 - d2_3 = 0
b5 - b5.v0 - b5.v1 = 0
b5.v0 - d4_5 = 0
b5.v1 - d6_5 = 0
b7 - b7.v0 - b7.v1 - b7.v2 = 0
b7.v0 - d4_7 = 0
b7.v1 - d6_7 = 0
b7.v2 - d16_7 = 0
b10 - b10.v0 - b10.v1 = 0
b10.v0 - d9_10 = 0
b10.v1 - d10_10 = 0
b11 - b11.v0 - b11.v1 = 0
b11.v0 - d9_11 = 0
b11.v1 - d10_11 = 0
b14 - b14.v0 - b14.v1 - b14.v2 = 0
b14.v0 - d3_14 = 0
b14.v1 - d13_14 = 0
b14.v2 - d17_14 = 0
b19 - b19.v0 - b19.v1 = 0
b19.v0 - d18_19 = 0
b19.v1 - d22_19 = 0
b21 - b21.v0 - b21.v1 = 0
b21.v0 - d19_21 = 0
b21.v1 - d20_21 = 0
b24 - b24.v0 - b24.v1 = 0
b24.v0 - d23_24 = 0
b24.v1 - d26_24 = 0
b27 - b27.v0 - b27.v1 = 0
b27.v0 - d27_27 = 0
b27.v1 - d29_27 = 0
b28 - b28.v0 - b28.v1 = 0
b28.v0 - d27_28 = 0
b28.v1 - d29_28 = 0
b31 - b31.v0 - b31.v1 = 0
b31.v0 - d30_31 = 0
b31.v1 - d31_31 = 0
b35 - b35.v0 - b35.v1 = 0
b35.v0 - d34_35 = 0
b35.v1 - d35_35 = 0
b40 - b40.v0 - b40.v1 = 0
b40.v0 - d38_40 = 0
b40.v1 - d39_40 = 0
b45 - b45.v0 - b45.v1 = 0
b45.v0 - d43_45 = 0
b45.v1 - d44_45 = 0
b47 - b47.v0 - b47.v1 = 0
b47.v0 - d45_47 = 0
b47.v1 - d46_47 = 0
b52 - b52.v0 - b52.v1 = 0
b52.v0 - d51_52 = 0
b52.v1 - d55_52 = 0
b54 - b54.v0 - b54.v1 = 0
b54.v0 - d52_54 = 0
b54.v1 - d53_54 = 0


\ === inst cache constraints ===
b5 - x5_0.h - x5_0.m = 0
x5_0.m <= 1
b6 - x6_0.h - x6_0.m = 0
x6_0.m <= 1
b6 - x6_1.h - x6_1.m = 0
x6_1.m <= 1
b10 - x10_0.h - x10_0.m = 0
x10_0.m <= 1
b10 - x10_1.h - x10_1.m = 0
x10_1.m <= 1
b16 - x16_0.h - x16_0.m = 0
x16_0.m <= 1
b24 - x24_0.h - x24_0.m = 0
x24_0.m <= 1
b25 - x25_0.h - x25_0.m = 0
x25_0.m <= 1
b25 - x25_1.h - x25_1.m = 0
x25_1.m <= 1
b26 - x26_0.h - x26_0.m = 0
x26_0.m <= 1
b27 - x27_0.h - x27_0.m = 0
x27_0.m <= 1
b27 - x27_1.h - x27_1.m = 0
x27_1.m <= 1
b27 - x27_2.h - x27_2.m = 0
x27_2.m <= 1
b27 - x27_3.h - x27_3.m = 0
x27_3.m <= 1
b27 - x27_4.h - x27_4.m = 0
x27_4.m <= 1
b27 - x27_5.h - x27_5.m = 0
x27_5.m <= 1
b30 - x30_0.h - x30_0.m = 0
x30_0.m <= 1
b30 - x30_1.h - x30_1.m = 0
x30_1.m <= 1
b30 - x30_2.h - x30_2.m = 0
x30_2.m <= 1
b32 - x32_0.h - x32_0.m = 0
x32_0.m <= 1
b32 - x32_1.h - x32_1.m = 0
x32_1.m <= 1
b34 - x34_0.h - x34_0.m = 0
x34_0.m <= 1
b34 - x34_1.h - x34_1.m = 0
x34_1.m <= 1
b34 - x34_2.h - x34_2.m = 0
x34_2.m <= 1
b34 - x34_3.h - x34_3.m = 0
x34_3.m <= 1
b34 - x34_4.h - x34_4.m = 0
x34_4.m <= 1
b36 - x36_0.h - x36_0.m = 0
x36_0.m <= 1
b36 - x36_1.h - x36_1.m = 0
x36_1.m <= 1


\ === data cache constraints ===
b5 - dr5_0.h - dr5_0.m = 0
dr5_0.m <= 1
b6 - dr6_0.h - dr6_0.m = 0
dr6_0.m <= 1
b6 - dr6_1.h - dr6_1.m = 0
dr6_1.m <= 1
b10 - dr10_0.h - dr10_0.m = 0
dr10_0.m <= 1
b10 - dr10_1.h - dr10_1.m = 0
dr10_1.m <= 1
b10 - dr10_2.h - dr10_2.m = 0
dr10_2.m <= 1
b10 - dr10_3.h - dr10_3.m = 0
dr10_3.m <= 1
b10 - dr10_4.h - dr10_4.m = 0
dr10_4.m <= 1
b16 - dr16_0.h - dr16_0.m = 0
dr16_0.m <= 1
b16 - dr16_1.h - dr16_1.m = 0
dr16_1.m <= 1
b16 - dr16_2.h - dr16_2.m = 0
dr16_2.m <= 1
b25 - dr25_0.h - dr25_0.m = 0
dr25_0.m <= 1
b25 - dr25_1.h - dr25_1.m = 0
dr25_1.m <= 1
b25 - dr25_2.h - dr25_2.m = 0
dr25_2.m <= 1
b25 - dr25_3.h - dr25_3.m = 0
dr25_3.m <= 1
b26 - dr26_0.h - dr26_0.m = 0
dr26_0.m <= 1
b27 - dr27_0.h - dr27_0.m = 0
dr27_0.m <= 1
b27 - dr27_1.h - dr27_1.m = 0
dr27_1.m <= 1
b27 - dr27_2.h - dr27_2.m = 0
dr27_2.m <= 1
b27 - dr27_3.h - dr27_3.m = 0
dr27_3.m <= 1
b27 - dr27_4.h - dr27_4.m = 0
dr27_4.m <= 1
b27 - dr27_5.h - dr27_5.m = 0
dr27_5.m <= 1
b27 - dr27_6.h - dr27_6.m = 0
dr27_6.m <= 1
b27 - dr27_7.h - dr27_7.m = 0
dr27_7.m <= 1
b27 - dr27_8.h - dr27_8.m = 0
dr27_8.m <= 1
b27 - dr27_9.h - dr27_9.m = 0
dr27_9.m <= 1
b27 - dr27_10.h - dr27_10.m = 0
dr27_10.m <= 1
b27 - dr27_11.h - dr27_11.m = 0
dr27_11.m <= 1
b27 - dr27_12.h - dr27_12.m = 0
dr27_12.m <= 1
b27 - dr27_13.h - dr27_13.m = 0
dr27_13.m <= 1
b30 - dr30_0.h - dr30_0.m = 0
dr30_0.m <= 1
b30 - dr30_1.h - dr30_1.m = 0
dr30_1.m <= 1
b32 - dr32_0.h - dr32_0.m = 0
dr32_0.m <= 1
b32 - dr32_1.h - dr32_1.m = 0
dr32_1.m <= 1
b34 - dr34_0.h - dr34_0.m = 0
dr34_0.m <= 1
b34 - dr34_1.h - dr34_1.m = 0
dr34_1.m <= 1
b36 - dr36_0.h - dr36_0.m = 0
dr36_0.m <= 1
b36 - dr36_1.h - dr36_1.m = 0
dr36_1.m <= 1


Generals


b0
b1
b2
b3
b3.v0
b3.v1
b4
b5
b5.v0
b5.v1
b6
b7
b7.v0
b7.v1
b7.v2
b8
b9
b10
b10.v0
b10.v1
b11
b11.v0
b11.v1
b12
b13
b14
b14.v0
b14.v1
b14.v2
b15
b16
b17
b18
b19
b19.v0
b19.v1
b20
b21
b21.v0
b21.v1
b22
b23
b24
b24.v0
b24.v1
b25
b26
b27
b27.v0
b27.v1
b28
b28.v0
b28.v1
b29
b30
b31
b31.v0
b31.v1
b32
b34
b35
b35.v0
b35.v1
b36
b38
b39
b40
b40.v0
b40.v1
b41
b43
b44
b45
b45.v0
b45.v1
b46
b47
b47.v0
b47.v1
b48
b49
b51
b52
b52.v0
b52.v1
b53
b54
b54.v0
b54.v1
b55
d0_18
d1_3
d1_15
d2_3
d2_4
d3_14
d4_5
d4_7
d5_6
d5_16
d6_5
d6_7
d7_8
d7_17
d8_23
d9_10
d9_11
d10_10
d10_11
d11_38
d12_43
d13_14
d15_51
d16_7
d17_14
d18_19
d18_22
d19_21
d20_21
d21_1
d22_19
d22_20
d23_24
d24_30
d25_34
d26_24
d26_29
d27_27
d27_28
d28_9
d29_27
d29_28
d30_31
d31_31
d31_32
d32_25
d34_35
d35_35
d35_36
d36_26
d38_40
d38_41
d39_40
d40_12
d41_39
d43_45
d43_48
d44_45
d45_47
d45_49
d46_47
d47_13
d48_44
d49_46
d51_52
d51_55
d52_54
d53_54
d54_2
d55_52
d55_53
dSta_0
dr5_0.h
dr5_0.m
dr6_0.h
dr6_0.m
dr6_1.h
dr6_1.m
dr10_0.h
dr10_0.m
dr10_1.h
dr10_1.m
dr10_2.h
dr10_2.m
dr10_3.h
dr10_3.m
dr10_4.h
dr10_4.m
dr16_0.h
dr16_0.m
dr16_1.h
dr16_1.m
dr16_2.h
dr16_2.m
dr25_0.h
dr25_0.m
dr25_1.h
dr25_1.m
dr25_2.h
dr25_2.m
dr25_3.h
dr25_3.m
dr26_0.h
dr26_0.m
dr27_0.h
dr27_0.m
dr27_1.h
dr27_1.m
dr27_2.h
dr27_2.m
dr27_3.h
dr27_3.m
dr27_4.h
dr27_4.m
dr27_5.h
dr27_5.m
dr27_6.h
dr27_6.m
dr27_7.h
dr27_7.m
dr27_8.h
dr27_8.m
dr27_9.h
dr27_9.m
dr27_10.h
dr27_10.m
dr27_11.h
dr27_11.m
dr27_12.h
dr27_12.m
dr27_13.h
dr27_13.m
dr30_0.h
dr30_0.m
dr30_1.h
dr30_1.m
dr32_0.h
dr32_0.m
dr32_1.h
dr32_1.m
dr34_0.h
dr34_0.m
dr34_1.h
dr34_1.m
dr36_0.h
dr36_0.m
dr36_1.h
dr36_1.m
x5_0.h
x5_0.m
x6_0.h
x6_0.m
x6_1.h
x6_1.m
x10_0.h
x10_0.m
x10_1.h
x10_1.m
x16_0.h
x16_0.m
x24_0.h
x24_0.m
x25_0.h
x25_0.m
x25_1.h
x25_1.m
x26_0.h
x26_0.m
x27_0.h
x27_0.m
x27_1.h
x27_1.m
x27_2.h
x27_2.m
x27_3.h
x27_3.m
x27_4.h
x27_4.m
x27_5.h
x27_5.m
x30_0.h
x30_0.m
x30_1.h
x30_1.m
x30_2.h
x30_2.m
x32_0.h
x32_0.m
x32_1.h
x32_1.m
x34_0.h
x34_0.m
x34_1.h
x34_1.m
x34_2.h
x34_2.m
x34_3.h
x34_3.m
x34_4.h
x34_4.m
x36_0.h
x36_0.m
x36_1.h
x36_1.m


End
\ total cons: 354    total vars: 294
